(set-info :source |printed by MathSAT|)
(declare-fun |!{a1.1}| () (Array Int Int))
(declare-fun |!{a1.1}.next| () (Array Int Int))
(declare-fun |!{a2.2}| () (Array Int Int))
(declare-fun |!{a2.2}.next| () (Array Int Int))
(declare-fun |!{a3.3}| () (Array Int Int))
(declare-fun |!{a3.3}.next| () (Array Int Int))
(declare-fun |!{a4.4}| () (Array Int Int))
(declare-fun |!{a4.4}.next| () (Array Int Int))
(declare-fun |!{a5.5}| () (Array Int Int))
(declare-fun |!{a5.5}.next| () (Array Int Int))
(declare-fun |!{a6.6}| () (Array Int Int))
(declare-fun |!{a6.6}.next| () (Array Int Int))
(declare-fun |!{N}| () Int)
(declare-fun |!{N}.next| () Int)
(declare-fun |!{i}| () Int)
(declare-fun |!{i}.next| () Int)
(declare-fun |!{x}| () Int)
(declare-fun |!{x}.next| () Int)
(declare-fun |!pc[0]| () Bool)
(declare-fun |!pc[0].next| () Bool)
(declare-fun |!pc[1]| () Bool)
(declare-fun |!pc[1].next| () Bool)
(declare-fun |!pc[2]| () Bool)
(declare-fun |!pc[2].next| () Bool)
(declare-fun |!pc[3]| () Bool)
(declare-fun |!pc[3].next| () Bool)
(declare-fun |%{x}#1| () Int)
(declare-fun |%{a1.1}#1| () (Array Int Int))
(declare-fun |%{a2.2}#1| () (Array Int Int))
(declare-fun |%{a3.3}#1| () (Array Int Int))
(declare-fun |%{a4.4}#1| () (Array Int Int))
(declare-fun |%{a5.5}#1| () (Array Int Int))
(declare-fun |%{a6.6}#1| () (Array Int Int))
(declare-fun nd<0> () Int)
(declare-fun nd_char<0> () Int)
(declare-fun arrlambda_0 () Int)
(declare-fun arrlambda_0.next () Int)
(declare-fun proph0 () Int)
(declare-fun proph0.next () Int)
(define-fun .def_10 () Bool (! |!pc[3]| :next |!pc[3].next|))
(define-fun .def_12 () Bool (! |!pc[2]| :next |!pc[2].next|))
(define-fun .def_14 () Bool (! |!pc[1]| :next |!pc[1].next|))
(define-fun .def_16 () Bool (! |!pc[0]| :next |!pc[0].next|))
(define-fun .def_35 () (Array Int Int) (! |!{a2.2}| :next |!{a2.2}.next|))
(define-fun .def_38 () (Array Int Int) (! |!{a1.1}| :next |!{a1.1}.next|))
(define-fun .def_42 () (Array Int Int) (! |!{a3.3}| :next |!{a3.3}.next|))
(define-fun .def_46 () (Array Int Int) (! |!{a4.4}| :next |!{a4.4}.next|))
(define-fun .def_50 () (Array Int Int) (! |!{a5.5}| :next |!{a5.5}.next|))
(define-fun .def_54 () (Array Int Int) (! |!{a6.6}| :next |!{a6.6}.next|))
(define-fun .def_58 () Int (! |!{N}| :next |!{N}.next|))
(define-fun .def_66 () Int (! |!{x}| :next |!{x}.next|))
(define-fun .def_70 () Int (! |!{i}| :next |!{i}.next|))
(define-fun .def_571 () Int (! arrlambda_0 :next |arrlambda_0.next|))
(define-fun .def_155609 () Int (! proph0 :next |proph0.next|))
(define-fun .def_17 () Bool (not .def_16))
(define-fun .def_15 () Bool (not .def_14))
(define-fun .def_18 () Bool (and .def_15 .def_17))
(define-fun .def_13 () Bool (not .def_12))
(define-fun .def_19 () Bool (and .def_13 .def_18))
(define-fun .def_11 () Bool (not .def_10))
(define-fun .def_20 () Bool (! (and .def_11 .def_19) :init true))
(define-fun .def_241776 () Int (select .def_54 .def_155609))
(define-fun .def_241748 () Int (select |!{a6.6}.next| .def_155609))
(define-fun .def_241820 () Bool (= .def_241748 .def_241776))
(define-fun .def_56 () Bool (= .def_54 |!{a6.6}.next|))
(define-fun .def_76687 () Bool (not .def_56))
(define-fun .def_241821 () Bool (or .def_76687 .def_241820))
(define-fun .def_241781 () Int (select .def_50 .def_155609))
(define-fun .def_241753 () Int (select |!{a5.5}.next| .def_155609))
(define-fun .def_241817 () Bool (= .def_241753 .def_241781))
(define-fun .def_52 () Bool (= .def_50 |!{a5.5}.next|))
(define-fun .def_76679 () Bool (not .def_52))
(define-fun .def_241818 () Bool (or .def_76679 .def_241817))
(define-fun .def_241786 () Int (select .def_46 .def_155609))
(define-fun .def_241758 () Int (select |!{a4.4}.next| .def_155609))
(define-fun .def_241814 () Bool (= .def_241758 .def_241786))
(define-fun .def_48 () Bool (= .def_46 |!{a4.4}.next|))
(define-fun .def_76674 () Bool (not .def_48))
(define-fun .def_241815 () Bool (or .def_76674 .def_241814))
(define-fun .def_241791 () Int (select .def_42 .def_155609))
(define-fun .def_241763 () Int (select |!{a3.3}.next| .def_155609))
(define-fun .def_241811 () Bool (= .def_241763 .def_241791))
(define-fun .def_44 () Bool (= .def_42 |!{a3.3}.next|))
(define-fun .def_76669 () Bool (not .def_44))
(define-fun .def_241812 () Bool (or .def_76669 .def_241811))
(define-fun .def_241800 () Int (select .def_35 .def_155609))
(define-fun .def_241772 () Int (select |!{a2.2}.next| .def_155609))
(define-fun .def_241808 () Bool (= .def_241772 .def_241800))
(define-fun .def_37 () Bool (= .def_35 |!{a2.2}.next|))
(define-fun .def_76664 () Bool (not .def_37))
(define-fun .def_241809 () Bool (or .def_76664 .def_241808))
(define-fun .def_76695 () Int (select |!{a5.5}.next| .def_70))
(define-fun .def_175 () Int (select .def_50 .def_70))
(define-fun .def_241805 () Bool (= .def_175 .def_76695))
(define-fun .def_241806 () Bool (or .def_76679 .def_241805))
(define-fun .def_80 () (Array Int Int) (store .def_35 .def_70 nd_char<0>))
(define-fun .def_241771 () Int (select .def_80 .def_155609))
(define-fun .def_241801 () Bool (= .def_241771 .def_241800))
(define-fun .def_156375 () Bool (= .def_70 .def_155609))
(define-fun .def_241802 () Bool (or .def_156375 .def_241801))
(define-fun .def_82 () (Array Int Int) (store .def_38 .def_70 nd_char<0>))
(define-fun .def_241767 () Int (select .def_82 .def_155609))
(define-fun .def_241741 () Int (select .def_38 .def_155609))
(define-fun .def_241796 () Bool (= .def_241741 .def_241767))
(define-fun .def_241797 () Bool (or .def_156375 .def_241796))
(define-fun .def_110 () Int (select .def_35 .def_70))
(define-fun .def_111 () (Array Int Int) (store .def_42 .def_70 .def_110))
(define-fun .def_241762 () Int (select .def_111 .def_155609))
(define-fun .def_241792 () Bool (= .def_241762 .def_241791))
(define-fun .def_241793 () Bool (or .def_156375 .def_241792))
(define-fun .def_132 () Int (select .def_42 .def_70))
(define-fun .def_133 () (Array Int Int) (store .def_46 .def_70 .def_132))
(define-fun .def_241757 () Int (select .def_133 .def_155609))
(define-fun .def_241787 () Bool (= .def_241757 .def_241786))
(define-fun .def_241788 () Bool (or .def_156375 .def_241787))
(define-fun .def_152 () Int (select .def_46 .def_70))
(define-fun .def_153 () (Array Int Int) (store .def_50 .def_70 .def_152))
(define-fun .def_241752 () Int (select .def_153 .def_155609))
(define-fun .def_241782 () Bool (= .def_241752 .def_241781))
(define-fun .def_241783 () Bool (or .def_156375 .def_241782))
(define-fun .def_176 () (Array Int Int) (store .def_54 .def_70 .def_175))
(define-fun .def_241747 () Int (select .def_176 .def_155609))
(define-fun .def_241777 () Bool (= .def_241747 .def_241776))
(define-fun .def_241778 () Bool (or .def_156375 .def_241777))
(define-fun .def_241773 () Bool (= .def_241771 .def_241772))
(define-fun .def_81 () Bool (= |!{a2.2}.next| .def_80))
(define-fun .def_76716 () Bool (not .def_81))
(define-fun .def_241774 () Bool (or .def_76716 .def_241773))
(define-fun .def_241742 () Int (select |!{a1.1}.next| .def_155609))
(define-fun .def_241768 () Bool (= .def_241742 .def_241767))
(define-fun .def_83 () Bool (= |!{a1.1}.next| .def_82))
(define-fun .def_76711 () Bool (not .def_83))
(define-fun .def_241769 () Bool (or .def_76711 .def_241768))
(define-fun .def_241764 () Bool (= .def_241762 .def_241763))
(define-fun .def_112 () Bool (= |!{a3.3}.next| .def_111))
(define-fun .def_76707 () Bool (not .def_112))
(define-fun .def_241765 () Bool (or .def_76707 .def_241764))
(define-fun .def_241759 () Bool (= .def_241757 .def_241758))
(define-fun .def_134 () Bool (= |!{a4.4}.next| .def_133))
(define-fun .def_76702 () Bool (not .def_134))
(define-fun .def_241760 () Bool (or .def_76702 .def_241759))
(define-fun .def_241754 () Bool (= .def_241752 .def_241753))
(define-fun .def_154 () Bool (= |!{a5.5}.next| .def_153))
(define-fun .def_76697 () Bool (not .def_154))
(define-fun .def_241755 () Bool (or .def_76697 .def_241754))
(define-fun .def_241749 () Bool (= .def_241747 .def_241748))
(define-fun .def_177 () Bool (= |!{a6.6}.next| .def_176))
(define-fun .def_76692 () Bool (not .def_177))
(define-fun .def_241750 () Bool (or .def_76692 .def_241749))
(define-fun .def_155612 () Bool (= .def_155609 proph0.next))
(define-fun .def_76714 () Int (select |!{a2.2}.next| .def_70))
(define-fun .def_76644 () Int (select .def_80 .def_70))
(define-fun .def_76715 () Bool (= .def_76644 .def_76714))
(define-fun .def_76717 () Bool (or .def_76715 .def_76716))
(define-fun .def_76659 () Int (select |!{a1.1}.next| .def_70))
(define-fun .def_76640 () Int (select .def_82 .def_70))
(define-fun .def_76710 () Bool (= .def_76640 .def_76659))
(define-fun .def_76712 () Bool (or .def_76710 .def_76711))
(define-fun .def_76705 () Int (select |!{a3.3}.next| .def_70))
(define-fun .def_76636 () Int (select .def_111 .def_70))
(define-fun .def_76706 () Bool (= .def_76636 .def_76705))
(define-fun .def_76708 () Bool (or .def_76706 .def_76707))
(define-fun .def_76700 () Int (select |!{a4.4}.next| .def_70))
(define-fun .def_76632 () Int (select .def_133 .def_70))
(define-fun .def_76701 () Bool (= .def_76632 .def_76700))
(define-fun .def_76703 () Bool (or .def_76701 .def_76702))
(define-fun .def_76628 () Int (select .def_153 .def_70))
(define-fun .def_76696 () Bool (= .def_76628 .def_76695))
(define-fun .def_76698 () Bool (or .def_76696 .def_76697))
(define-fun .def_76690 () Int (select |!{a6.6}.next| .def_70))
(define-fun .def_76624 () Int (select .def_176 .def_70))
(define-fun .def_76691 () Bool (= .def_76624 .def_76690))
(define-fun .def_76693 () Bool (or .def_76691 .def_76692))
(define-fun .def_76685 () Int (select .def_54 |!{x}.next|))
(define-fun .def_76684 () Int (select |!{a6.6}.next| |!{x}.next|))
(define-fun .def_76686 () Bool (= .def_76684 .def_76685))
(define-fun .def_76688 () Bool (or .def_76686 .def_76687))
(define-fun .def_76680 () Int (select .def_50 |!{i}.next|))
(define-fun .def_76620 () Int (select |!{a5.5}.next| |!{i}.next|))
(define-fun .def_76681 () Bool (= .def_76620 .def_76680))
(define-fun .def_76682 () Bool (or .def_76679 .def_76681))
(define-fun .def_76675 () Int (select .def_46 |!{i}.next|))
(define-fun .def_76616 () Int (select |!{a4.4}.next| |!{i}.next|))
(define-fun .def_76676 () Bool (= .def_76616 .def_76675))
(define-fun .def_76677 () Bool (or .def_76674 .def_76676))
(define-fun .def_76670 () Int (select .def_42 |!{i}.next|))
(define-fun .def_76612 () Int (select |!{a3.3}.next| |!{i}.next|))
(define-fun .def_76671 () Bool (= .def_76612 .def_76670))
(define-fun .def_76672 () Bool (or .def_76669 .def_76671))
(define-fun .def_76665 () Int (select .def_35 |!{i}.next|))
(define-fun .def_76608 () Int (select |!{a2.2}.next| |!{i}.next|))
(define-fun .def_76666 () Bool (= .def_76608 .def_76665))
(define-fun .def_76667 () Bool (or .def_76664 .def_76666))
(define-fun .def_76660 () Int (select .def_38 .def_70))
(define-fun .def_76661 () Bool (= .def_76659 .def_76660))
(define-fun .def_40 () Bool (= .def_38 |!{a1.1}.next|))
(define-fun .def_76648 () Bool (not .def_40))
(define-fun .def_76662 () Bool (or .def_76648 .def_76661))
(define-fun .def_76655 () Int (select .def_38 |!{x}.next|))
(define-fun .def_76654 () Int (select |!{a1.1}.next| |!{x}.next|))
(define-fun .def_76656 () Bool (= .def_76654 .def_76655))
(define-fun .def_76657 () Bool (or .def_76648 .def_76656))
(define-fun .def_76650 () Int (select .def_38 |!{i}.next|))
(define-fun .def_76649 () Int (select |!{a1.1}.next| |!{i}.next|))
(define-fun .def_76651 () Bool (= .def_76649 .def_76650))
(define-fun .def_76652 () Bool (or .def_76648 .def_76651))
(define-fun .def_76645 () Bool (= nd_char<0> .def_76644))
(define-fun .def_76641 () Bool (= nd_char<0> .def_76640))
(define-fun .def_76637 () Bool (= .def_110 .def_76636))
(define-fun .def_76633 () Bool (= .def_132 .def_76632))
(define-fun .def_76629 () Bool (= .def_152 .def_76628))
(define-fun .def_76625 () Bool (= .def_175 .def_76624))
(define-fun .def_573 () Bool (= .def_571 arrlambda_0.next))
(define-fun .def_259 () Bool (<= nd<0> 0))
(define-fun .def_260 () Bool (not .def_259))
(define-fun .def_250 () Bool (= |!{a1.1}.next| |%{a1.1}#1|))
(define-fun .def_248 () Bool (= |!{a2.2}.next| |%{a2.2}#1|))
(define-fun .def_251 () Bool (and .def_248 .def_250))
(define-fun .def_246 () Bool (= |!{a3.3}.next| |%{a3.3}#1|))
(define-fun .def_252 () Bool (and .def_246 .def_251))
(define-fun .def_244 () Bool (= |!{a4.4}.next| |%{a4.4}#1|))
(define-fun .def_253 () Bool (and .def_244 .def_252))
(define-fun .def_242 () Bool (= |!{a5.5}.next| |%{a5.5}#1|))
(define-fun .def_254 () Bool (and .def_242 .def_253))
(define-fun .def_240 () Bool (= |!{a6.6}.next| |%{a6.6}#1|))
(define-fun .def_255 () Bool (and .def_240 .def_254))
(define-fun .def_238 () Bool (= |!{N}.next| nd<0>))
(define-fun .def_256 () Bool (and .def_238 .def_255))
(define-fun .def_64 () Bool (= |!{i}.next| 0))
(define-fun .def_257 () Bool (and .def_64 .def_256))
(define-fun .def_236 () Bool (= |!{x}.next| |%{x}#1|))
(define-fun .def_258 () Bool (and .def_236 .def_257))
(define-fun .def_261 () Bool (and .def_258 .def_260))
(define-fun .def_27 () Bool (not |!pc[1].next|))
(define-fun .def_75 () Bool (and |!pc[0].next| .def_27))
(define-fun .def_30 () Bool (not |!pc[2].next|))
(define-fun .def_76 () Bool (and .def_30 .def_75))
(define-fun .def_74 () Bool (not |!pc[3].next|))
(define-fun .def_77 () Bool (and .def_74 .def_76))
(define-fun .def_234 () Bool (and .def_20 .def_77))
(define-fun .def_262 () Bool (and .def_234 .def_261))
(define-fun .def_211 () Int (select .def_38 .def_66))
(define-fun .def_210 () Int (select .def_54 .def_66))
(define-fun .def_212 () Bool (= .def_210 .def_211))
(define-fun .def_220 () Bool (not .def_212))
(define-fun .def_221 () Bool (and .def_40 .def_220))
(define-fun .def_222 () Bool (and .def_37 .def_221))
(define-fun .def_223 () Bool (and .def_44 .def_222))
(define-fun .def_224 () Bool (and .def_48 .def_223))
(define-fun .def_225 () Bool (and .def_52 .def_224))
(define-fun .def_226 () Bool (and .def_56 .def_225))
(define-fun .def_60 () Bool (= .def_58 |!{N}.next|))
(define-fun .def_227 () Bool (and .def_60 .def_226))
(define-fun .def_169 () Bool (= |!{i}.next| .def_70))
(define-fun .def_228 () Bool (and .def_169 .def_227))
(define-fun .def_68 () Bool (= .def_66 |!{x}.next|))
(define-fun .def_229 () Bool (and .def_68 .def_228))
(define-fun .def_198 () Bool (<= .def_58 .def_66))
(define-fun .def_214 () Bool (not .def_198))
(define-fun .def_230 () Bool (and .def_214 .def_229))
(define-fun .def_104 () Bool (and |!pc[0].next| |!pc[1].next|))
(define-fun .def_217 () Bool (and .def_30 .def_104))
(define-fun .def_218 () Bool (and .def_74 .def_217))
(define-fun .def_144 () Bool (and .def_14 .def_17))
(define-fun .def_195 () Bool (and .def_13 .def_144))
(define-fun .def_196 () Bool (and .def_11 .def_195))
(define-fun .def_219 () Bool (and .def_196 .def_218))
(define-fun .def_231 () Bool (and .def_219 .def_230))
(define-fun .def_188 () Int (* (- 1) |!{x}.next|))
(define-fun .def_189 () Int (+ .def_66 .def_188))
(define-fun .def_190 () Bool (= .def_189 (- 1)))
(define-fun .def_41 () Bool (and .def_37 .def_40))
(define-fun .def_45 () Bool (and .def_41 .def_44))
(define-fun .def_49 () Bool (and .def_45 .def_48))
(define-fun .def_53 () Bool (and .def_49 .def_52))
(define-fun .def_57 () Bool (and .def_53 .def_56))
(define-fun .def_61 () Bool (and .def_57 .def_60))
(define-fun .def_170 () Bool (and .def_61 .def_169))
(define-fun .def_191 () Bool (and .def_170 .def_190))
(define-fun .def_213 () Bool (and .def_191 .def_212))
(define-fun .def_215 () Bool (and .def_213 .def_214))
(define-fun .def_25 () Bool (not |!pc[0].next|))
(define-fun .def_126 () Bool (and .def_25 |!pc[1].next|))
(define-fun .def_165 () Bool (and .def_30 .def_126))
(define-fun .def_166 () Bool (and .def_74 .def_165))
(define-fun .def_209 () Bool (and .def_166 .def_196))
(define-fun .def_216 () Bool (and .def_209 .def_215))
(define-fun .def_232 () Bool (or .def_216 .def_231))
(define-fun .def_199 () Bool (and .def_40 .def_198))
(define-fun .def_200 () Bool (and .def_37 .def_199))
(define-fun .def_201 () Bool (and .def_44 .def_200))
(define-fun .def_202 () Bool (and .def_48 .def_201))
(define-fun .def_203 () Bool (and .def_52 .def_202))
(define-fun .def_204 () Bool (and .def_56 .def_203))
(define-fun .def_205 () Bool (and .def_60 .def_204))
(define-fun .def_206 () Bool (and .def_169 .def_205))
(define-fun .def_207 () Bool (and .def_68 .def_206))
(define-fun .def_28 () Bool (and .def_25 .def_27))
(define-fun .def_193 () Bool (and .def_28 |!pc[2].next|))
(define-fun .def_194 () Bool (and .def_74 .def_193))
(define-fun .def_197 () Bool (and .def_194 .def_196))
(define-fun .def_208 () Bool (and .def_197 .def_207))
(define-fun .def_233 () Bool (or .def_208 .def_232))
(define-fun .def_263 () Bool (or .def_233 .def_262))
(define-fun .def_123 () Bool (and .def_14 .def_16))
(define-fun .def_185 () Bool (and .def_13 .def_123))
(define-fun .def_186 () Bool (and .def_11 .def_185))
(define-fun .def_187 () Bool (and .def_166 .def_186))
(define-fun .def_192 () Bool (and .def_187 .def_191))
(define-fun .def_264 () Bool (or .def_192 .def_263))
(define-fun .def_178 () Bool (and .def_53 .def_177))
(define-fun .def_179 () Bool (and .def_60 .def_178))
(define-fun .def_94 () Int (* (- 1) .def_70))
(define-fun .def_95 () Int (+ |!{i}.next| .def_94))
(define-fun .def_96 () Bool (= .def_95 1))
(define-fun .def_180 () Bool (and .def_96 .def_179))
(define-fun .def_181 () Bool (and .def_68 .def_180))
(define-fun .def_71 () Bool (<= .def_58 .def_70))
(define-fun .def_99 () Bool (not .def_71))
(define-fun .def_182 () Bool (and .def_99 .def_181))
(define-fun .def_21 () Bool (and .def_15 .def_16))
(define-fun .def_163 () Bool (and .def_12 .def_21))
(define-fun .def_164 () Bool (and .def_11 .def_163))
(define-fun .def_147 () Bool (and |!pc[2].next| .def_75))
(define-fun .def_148 () Bool (and .def_74 .def_147))
(define-fun .def_174 () Bool (and .def_148 .def_164))
(define-fun .def_183 () Bool (and .def_174 .def_182))
(define-fun .def_168 () Bool (= |!{x}.next| 0))
(define-fun .def_171 () Bool (and .def_168 .def_170))
(define-fun .def_172 () Bool (and .def_71 .def_171))
(define-fun .def_167 () Bool (and .def_164 .def_166))
(define-fun .def_173 () Bool (and .def_167 .def_172))
(define-fun .def_184 () Bool (or .def_173 .def_183))
(define-fun .def_265 () Bool (or .def_184 .def_264))
(define-fun .def_155 () Bool (and .def_49 .def_154))
(define-fun .def_156 () Bool (and .def_56 .def_155))
(define-fun .def_157 () Bool (and .def_60 .def_156))
(define-fun .def_158 () Bool (and .def_96 .def_157))
(define-fun .def_159 () Bool (and .def_68 .def_158))
(define-fun .def_160 () Bool (and .def_99 .def_159))
(define-fun .def_145 () Bool (and .def_12 .def_144))
(define-fun .def_146 () Bool (and .def_11 .def_145))
(define-fun .def_127 () Bool (and |!pc[2].next| .def_126))
(define-fun .def_128 () Bool (and .def_74 .def_127))
(define-fun .def_151 () Bool (and .def_128 .def_146))
(define-fun .def_161 () Bool (and .def_151 .def_160))
(define-fun .def_149 () Bool (and .def_146 .def_148))
(define-fun .def_65 () Bool (and .def_61 .def_64))
(define-fun .def_69 () Bool (and .def_65 .def_68))
(define-fun .def_72 () Bool (and .def_69 .def_71))
(define-fun .def_150 () Bool (and .def_72 .def_149))
(define-fun .def_162 () Bool (or .def_150 .def_161))
(define-fun .def_266 () Bool (or .def_162 .def_265))
(define-fun .def_135 () Bool (and .def_45 .def_134))
(define-fun .def_136 () Bool (and .def_52 .def_135))
(define-fun .def_137 () Bool (and .def_56 .def_136))
(define-fun .def_138 () Bool (and .def_60 .def_137))
(define-fun .def_139 () Bool (and .def_96 .def_138))
(define-fun .def_140 () Bool (and .def_68 .def_139))
(define-fun .def_141 () Bool (and .def_99 .def_140))
(define-fun .def_124 () Bool (and .def_12 .def_123))
(define-fun .def_125 () Bool (and .def_11 .def_124))
(define-fun .def_105 () Bool (and |!pc[2].next| .def_104))
(define-fun .def_106 () Bool (and .def_74 .def_105))
(define-fun .def_131 () Bool (and .def_106 .def_125))
(define-fun .def_142 () Bool (and .def_131 .def_141))
(define-fun .def_129 () Bool (and .def_125 .def_128))
(define-fun .def_130 () Bool (and .def_72 .def_129))
(define-fun .def_143 () Bool (or .def_130 .def_142))
(define-fun .def_267 () Bool (or .def_143 .def_266))
(define-fun .def_113 () Bool (and .def_41 .def_112))
(define-fun .def_114 () Bool (and .def_48 .def_113))
(define-fun .def_115 () Bool (and .def_52 .def_114))
(define-fun .def_116 () Bool (and .def_56 .def_115))
(define-fun .def_117 () Bool (and .def_60 .def_116))
(define-fun .def_118 () Bool (and .def_96 .def_117))
(define-fun .def_119 () Bool (and .def_68 .def_118))
(define-fun .def_120 () Bool (and .def_99 .def_119))
(define-fun .def_103 () Bool (and .def_10 .def_19))
(define-fun .def_31 () Bool (and .def_28 .def_30))
(define-fun .def_33 () Bool (and .def_31 |!pc[3].next|))
(define-fun .def_109 () Bool (and .def_33 .def_103))
(define-fun .def_121 () Bool (and .def_109 .def_120))
(define-fun .def_107 () Bool (and .def_103 .def_106))
(define-fun .def_108 () Bool (and .def_72 .def_107))
(define-fun .def_122 () Bool (or .def_108 .def_121))
(define-fun .def_268 () Bool (or .def_122 .def_267))
(define-fun .def_84 () Bool (and .def_81 .def_83))
(define-fun .def_85 () Bool (and .def_44 .def_84))
(define-fun .def_86 () Bool (and .def_48 .def_85))
(define-fun .def_87 () Bool (and .def_52 .def_86))
(define-fun .def_88 () Bool (and .def_56 .def_87))
(define-fun .def_89 () Bool (and .def_60 .def_88))
(define-fun .def_97 () Bool (and .def_89 .def_96))
(define-fun .def_98 () Bool (and .def_68 .def_97))
(define-fun .def_100 () Bool (and .def_98 .def_99))
(define-fun .def_22 () Bool (and .def_13 .def_21))
(define-fun .def_23 () Bool (and .def_11 .def_22))
(define-fun .def_78 () Bool (and .def_23 .def_77))
(define-fun .def_101 () Bool (and .def_78 .def_100))
(define-fun .def_34 () Bool (and .def_23 .def_33))
(define-fun .def_73 () Bool (and .def_34 .def_72))
(define-fun .def_102 () Bool (or .def_73 .def_101))
(define-fun .def_269 () Bool (or .def_102 .def_268))
(define-fun .def_3087 () Bool (and .def_269 .def_573))
(define-fun .def_270 () Bool (not .def_186))
(define-fun .def_3088 () Bool (and .def_270 .def_3087))
(define-fun .def_76626 () Bool (and .def_3088 .def_76625))
(define-fun .def_76621 () (Array Int Int) (store |!{a6.6}.next| |!{i}.next| .def_76620))
(define-fun .def_76622 () Int (select .def_76621 |!{i}.next|))
(define-fun .def_76623 () Bool (= .def_76620 .def_76622))
(define-fun .def_76627 () Bool (and .def_76623 .def_76626))
(define-fun .def_76630 () Bool (and .def_76627 .def_76629))
(define-fun .def_76617 () (Array Int Int) (store |!{a5.5}.next| |!{i}.next| .def_76616))
(define-fun .def_76618 () Int (select .def_76617 |!{i}.next|))
(define-fun .def_76619 () Bool (= .def_76616 .def_76618))
(define-fun .def_76631 () Bool (and .def_76619 .def_76630))
(define-fun .def_76634 () Bool (and .def_76631 .def_76633))
(define-fun .def_76613 () (Array Int Int) (store |!{a4.4}.next| |!{i}.next| .def_76612))
(define-fun .def_76614 () Int (select .def_76613 |!{i}.next|))
(define-fun .def_76615 () Bool (= .def_76612 .def_76614))
(define-fun .def_76635 () Bool (and .def_76615 .def_76634))
(define-fun .def_76638 () Bool (and .def_76635 .def_76637))
(define-fun .def_76609 () (Array Int Int) (store |!{a3.3}.next| |!{i}.next| .def_76608))
(define-fun .def_76610 () Int (select .def_76609 |!{i}.next|))
(define-fun .def_76611 () Bool (= .def_76608 .def_76610))
(define-fun .def_76639 () Bool (and .def_76611 .def_76638))
(define-fun .def_76642 () Bool (and .def_76639 .def_76641))
(define-fun .def_76605 () (Array Int Int) (store |!{a1.1}.next| |!{i}.next| nd_char<0>))
(define-fun .def_76606 () Int (select .def_76605 |!{i}.next|))
(define-fun .def_76607 () Bool (= nd_char<0> .def_76606))
(define-fun .def_76643 () Bool (and .def_76607 .def_76642))
(define-fun .def_76646 () Bool (and .def_76643 .def_76645))
(define-fun .def_76602 () (Array Int Int) (store |!{a2.2}.next| |!{i}.next| nd_char<0>))
(define-fun .def_76603 () Int (select .def_76602 |!{i}.next|))
(define-fun .def_76604 () Bool (= nd_char<0> .def_76603))
(define-fun .def_76647 () Bool (and .def_76604 .def_76646))
(define-fun .def_76653 () Bool (and .def_76647 .def_76652))
(define-fun .def_76658 () Bool (and .def_76653 .def_76657))
(define-fun .def_76663 () Bool (and .def_76658 .def_76662))
(define-fun .def_76668 () Bool (and .def_76663 .def_76667))
(define-fun .def_76673 () Bool (and .def_76668 .def_76672))
(define-fun .def_76678 () Bool (and .def_76673 .def_76677))
(define-fun .def_76683 () Bool (and .def_76678 .def_76682))
(define-fun .def_76689 () Bool (and .def_76683 .def_76688))
(define-fun .def_76694 () Bool (and .def_76689 .def_76693))
(define-fun .def_76699 () Bool (and .def_76694 .def_76698))
(define-fun .def_76704 () Bool (and .def_76699 .def_76703))
(define-fun .def_76709 () Bool (and .def_76704 .def_76708))
(define-fun .def_76713 () Bool (and .def_76709 .def_76712))
(define-fun .def_76718 () Bool (and .def_76713 .def_76717))
(define-fun .def_241745 () Bool (and .def_76718 .def_155612))
(define-fun .def_241743 () Bool (= .def_241741 .def_241742))
(define-fun .def_241744 () Bool (or .def_76648 .def_241743))
(define-fun .def_241746 () Bool (and .def_241744 .def_241745))
(define-fun .def_241751 () Bool (and .def_241746 .def_241750))
(define-fun .def_241756 () Bool (and .def_241751 .def_241755))
(define-fun .def_241761 () Bool (and .def_241756 .def_241760))
(define-fun .def_241766 () Bool (and .def_241761 .def_241765))
(define-fun .def_241770 () Bool (and .def_241766 .def_241769))
(define-fun .def_241775 () Bool (and .def_241770 .def_241774))
(define-fun .def_241779 () Bool (and .def_241775 .def_241778))
(define-fun .def_241738 () Int (select |!{a6.6}.next| proph0.next))
(define-fun .def_241737 () Int (select .def_76621 proph0.next))
(define-fun .def_241739 () Bool (= .def_241737 .def_241738))
(define-fun .def_197381 () Bool (= |!{i}.next| proph0.next))
(define-fun .def_241740 () Bool (or .def_197381 .def_241739))
(define-fun .def_241780 () Bool (and .def_241740 .def_241779))
(define-fun .def_241784 () Bool (and .def_241780 .def_241783))
(define-fun .def_241734 () Int (select |!{a5.5}.next| proph0.next))
(define-fun .def_241733 () Int (select .def_76617 proph0.next))
(define-fun .def_241735 () Bool (= .def_241733 .def_241734))
(define-fun .def_241736 () Bool (or .def_197381 .def_241735))
(define-fun .def_241785 () Bool (and .def_241736 .def_241784))
(define-fun .def_241789 () Bool (and .def_241785 .def_241788))
(define-fun .def_241730 () Int (select |!{a4.4}.next| proph0.next))
(define-fun .def_241729 () Int (select .def_76613 proph0.next))
(define-fun .def_241731 () Bool (= .def_241729 .def_241730))
(define-fun .def_241732 () Bool (or .def_197381 .def_241731))
(define-fun .def_241790 () Bool (and .def_241732 .def_241789))
(define-fun .def_241794 () Bool (and .def_241790 .def_241793))
(define-fun .def_241726 () Int (select |!{a3.3}.next| proph0.next))
(define-fun .def_241725 () Int (select .def_76609 proph0.next))
(define-fun .def_241727 () Bool (= .def_241725 .def_241726))
(define-fun .def_241728 () Bool (or .def_197381 .def_241727))
(define-fun .def_241795 () Bool (and .def_241728 .def_241794))
(define-fun .def_241798 () Bool (and .def_241795 .def_241797))
(define-fun .def_241722 () Int (select |!{a1.1}.next| proph0.next))
(define-fun .def_241721 () Int (select .def_76605 proph0.next))
(define-fun .def_241723 () Bool (= .def_241721 .def_241722))
(define-fun .def_241724 () Bool (or .def_197381 .def_241723))
(define-fun .def_241799 () Bool (and .def_241724 .def_241798))
(define-fun .def_241803 () Bool (and .def_241799 .def_241802))
(define-fun .def_241718 () Int (select |!{a2.2}.next| proph0.next))
(define-fun .def_241717 () Int (select .def_76602 proph0.next))
(define-fun .def_241719 () Bool (= .def_241717 .def_241718))
(define-fun .def_241720 () Bool (or .def_197381 .def_241719))
(define-fun .def_241804 () Bool (and .def_241720 .def_241803))
(define-fun .def_241807 () Bool (and .def_241804 .def_241806))
(define-fun .def_241810 () Bool (and .def_241807 .def_241809))
(define-fun .def_241813 () Bool (and .def_241810 .def_241812))
(define-fun .def_241816 () Bool (and .def_241813 .def_241815))
(define-fun .def_241819 () Bool (and .def_241816 .def_241818))
(define-fun .def_241822 () Bool (! (and .def_241819 .def_241821) :trans true))
(define-fun .def_155610 () Bool (= .def_66 .def_155609))
(define-fun .def_155614 () Bool (not .def_155610))
(define-fun .def_155615 () Bool (! (or .def_270 .def_155614) :invar-property 0))
(assert true)
